# Solution for model orb01
# Objective value = 1059
C 1059.000000000
x_0_0 397.000000000
x_0_1 485.000000000
x_0_2 549.000000000
x_0_3 640.000000000
x_0_4 671.000000000
x_0_5 724.000000000
x_0_6 863.000000000
x_0_7 915.000000000
x_0_8 967.000000000
x_0_9 975.000000000
x_1_0 64.000000000
x_1_1 125.000000000
x_1_2 164.000000000
x_1_3 268.000000000
x_1_4 346.000000000
x_1_5 395.000000000
x_1_6 490.000000000
x_1_7 581.000000000
x_1_8 655.000000000
x_1_9 697.000000000
x_2_0 469.000000000
x_2_1 602.000000000
x_2_2 634.000000000
x_2_3 669.000000000
x_2_4 706.000000000
x_2_5 724.000000000
x_2_6 772.000000000
x_2_7 863.000000000
x_2_8 915.000000000
x_2_9 975.000000000
x_3_0 0.000000000
x_3_1 50.000000000
x_3_2 137.000000000
x_3_3 164.000000000
x_3_4 263.000000000
x_3_5 337.000000000
x_3_6 346.000000000
x_3_7 379.000000000
x_3_8 399.000000000
x_3_9 645.000000000
x_4_0 0.000000000
x_4_1 243.000000000
x_4_2 346.000000000
x_4_3 389.000000000
x_4_4 494.000000000
x_4_5 549.000000000
x_4_6 604.000000000
x_4_7 609.000000000
x_4_8 650.000000000
x_4_9 736.000000000
x_5_0 8.000000000
x_5_1 96.000000000
x_5_2 126.000000000
x_5_3 152.000000000
x_5_4 164.000000000
x_5_5 232.000000000
x_5_6 319.000000000
x_5_7 399.000000000
x_5_8 469.000000000
x_5_9 514.000000000
x_6_0 0.000000000
x_6_1 29.000000000
x_6_2 125.000000000
x_6_3 232.000000000
x_6_4 253.000000000
x_6_5 287.000000000
x_6_6 330.000000000
x_6_7 352.000000000
x_6_8 428.000000000
x_6_9 490.000000000
x_7_0 133.000000000
x_7_1 224.000000000
x_7_2 263.000000000
x_7_3 350.000000000
x_7_4 401.000000000
x_7_5 521.000000000
x_7_6 566.000000000
x_7_7 678.000000000
x_7_8 782.000000000
x_7_9 871.000000000
x_8_0 29.000000000
x_8_1 247.000000000
x_8_2 401.000000000
x_8_3 559.000000000
x_8_4 597.000000000
x_8_5 610.000000000
x_8_6 795.000000000
x_8_7 835.000000000
x_8_8 899.000000000
x_8_9 1005.000000000
x_9_0 224.000000000
x_9_1 337.000000000
x_9_2 397.000000000
x_9_3 451.000000000
x_9_4 475.000000000
x_9_5 549.000000000
x_9_6 637.000000000
x_9_7 684.000000000
x_9_8 784.000000000
x_9_9 835.000000000
y_0_1_0 1.000000000
y_0_1_1 1.000000000
y_0_1_2 1.000000000
y_0_1_3 1.000000000
y_0_1_4 1.000000000
y_0_1_5 1.000000000
y_0_1_6 1.000000000
y_0_1_7 1.000000000
y_0_1_8 1.000000000
y_0_1_9 1.000000000
y_0_2_0 0.000000000
y_0_2_1 0.000000000
y_0_2_2 0.000000000
y_0_2_3 1.000000000
y_0_2_4 0.000000000
y_0_2_5 1.000000000
y_0_2_6 1.000000000
y_0_2_7 1.000000000
y_0_2_8 0.000000000
y_0_2_9 1.000000000
y_0_3_0 1.000000000
y_0_3_1 1.000000000
y_0_3_2 1.000000000
y_0_3_3 1.000000000
y_0_3_4 1.000000000
y_0_3_5 1.000000000
y_0_3_6 1.000000000
y_0_3_7 1.000000000
y_0_3_8 1.000000000
y_0_3_9 1.000000000
y_0_4_0 1.000000000
y_0_4_1 1.000000000
y_0_4_2 0.000000000
y_0_4_3 1.000000000
y_0_4_4 1.000000000
y_0_4_5 1.000000000
y_0_4_6 1.000000000
y_0_4_7 1.000000000
y_0_4_8 1.000000000
y_0_4_9 1.000000000
y_0_5_0 1.000000000
y_0_5_1 1.000000000
y_0_5_2 1.000000000
y_0_5_3 1.000000000
y_0_5_4 1.000000000
y_0_5_5 1.000000000
y_0_5_6 1.000000000
y_0_5_7 1.000000000
y_0_5_8 1.000000000
y_0_5_9 1.000000000
y_0_6_0 1.000000000
y_0_6_1 1.000000000
y_0_6_2 1.000000000
y_0_6_3 1.000000000
y_0_6_4 1.000000000
y_0_6_5 1.000000000
y_0_6_6 1.000000000
y_0_6_7 1.000000000
y_0_6_8 1.000000000
y_0_6_9 1.000000000
y_0_7_0 1.000000000
y_0_7_1 1.000000000
y_0_7_2 1.000000000
y_0_7_3 1.000000000
y_0_7_4 1.000000000
y_0_7_5 1.000000000
y_0_7_6 1.000000000
y_0_7_7 1.000000000
y_0_7_8 1.000000000
y_0_7_9 1.000000000
y_0_8_0 0.000000000
y_0_8_1 1.000000000
y_0_8_2 1.000000000
y_0_8_3 0.000000000
y_0_8_4 1.000000000
y_0_8_5 1.000000000
y_0_8_6 0.000000000
y_0_8_7 1.000000000
y_0_8_8 0.000000000
y_0_8_9 1.000000000
y_0_9_0 1.000000000
y_0_9_1 0.000000000
y_0_9_2 1.000000000
y_0_9_3 1.000000000
y_0_9_4 1.000000000
y_0_9_5 0.000000000
y_0_9_6 1.000000000
y_0_9_7 1.000000000
y_0_9_8 1.000000000
y_0_9_9 1.000000000
y_1_2_0 0.000000000
y_1_2_1 0.000000000
y_1_2_2 0.000000000
y_1_2_3 0.000000000
y_1_2_4 0.000000000
y_1_2_5 0.000000000
y_1_2_6 0.000000000
y_1_2_7 0.000000000
y_1_2_8 0.000000000
y_1_2_9 0.000000000
y_1_3_0 1.000000000
y_1_3_1 1.000000000
y_1_3_2 0.000000000
y_1_3_3 0.000000000
y_1_3_4 1.000000000
y_1_3_5 1.000000000
y_1_3_6 1.000000000
y_1_3_7 1.000000000
y_1_3_8 0.000000000
y_1_3_9 1.000000000
y_1_4_0 0.000000000
y_1_4_1 1.000000000
y_1_4_2 0.000000000
y_1_4_3 0.000000000
y_1_4_4 0.000000000
y_1_4_5 1.000000000
y_1_4_6 0.000000000
y_1_4_7 1.000000000
y_1_4_8 0.000000000
y_1_4_9 1.000000000
y_1_5_0 1.000000000
y_1_5_1 1.000000000
y_1_5_2 1.000000000
y_1_5_3 0.000000000
y_1_5_4 0.000000000
y_1_5_5 0.000000000
y_1_5_6 1.000000000
y_1_5_7 1.000000000
y_1_5_8 1.000000000
y_1_5_9 1.000000000
y_1_6_0 0.000000000
y_1_6_1 1.000000000
y_1_6_2 1.000000000
y_1_6_3 1.000000000
y_1_6_4 0.000000000
y_1_6_5 1.000000000
y_1_6_6 1.000000000
y_1_6_7 1.000000000
y_1_6_8 1.000000000
y_1_6_9 1.000000000
y_1_7_0 0.000000000
y_1_7_1 0.000000000
y_1_7_2 1.000000000
y_1_7_3 0.000000000
y_1_7_4 0.000000000
y_1_7_5 0.000000000
y_1_7_6 0.000000000
y_1_7_7 0.000000000
y_1_7_8 0.000000000
y_1_7_9 1.000000000
y_1_8_0 0.000000000
y_1_8_1 1.000000000
y_1_8_2 1.000000000
y_1_8_3 0.000000000
y_1_8_4 0.000000000
y_1_8_5 0.000000000
y_1_8_6 0.000000000
y_1_8_7 1.000000000
y_1_8_8 0.000000000
y_1_8_9 0.000000000
y_1_9_0 0.000000000
y_1_9_1 0.000000000
y_1_9_2 1.000000000
y_1_9_3 0.000000000
y_1_9_4 0.000000000
y_1_9_5 0.000000000
y_1_9_6 1.000000000
y_1_9_7 0.000000000
y_1_9_8 1.000000000
y_1_9_9 0.000000000
y_2_3_0 1.000000000
y_2_3_1 1.000000000
y_2_3_2 1.000000000
y_2_3_3 1.000000000
y_2_3_4 1.000000000
y_2_3_5 1.000000000
y_2_3_6 1.000000000
y_2_3_7 1.000000000
y_2_3_8 1.000000000
y_2_3_9 1.000000000
y_2_4_0 1.000000000
y_2_4_1 1.000000000
y_2_4_2 1.000000000
y_2_4_3 1.000000000
y_2_4_4 1.000000000
y_2_4_5 1.000000000
y_2_4_6 1.000000000
y_2_4_7 1.000000000
y_2_4_8 1.000000000
y_2_4_9 1.000000000
y_2_5_0 1.000000000
y_2_5_1 1.000000000
y_2_5_2 1.000000000
y_2_5_3 1.000000000
y_2_5_4 1.000000000
y_2_5_5 1.000000000
y_2_5_6 1.000000000
y_2_5_7 1.000000000
y_2_5_8 1.000000000
y_2_5_9 1.000000000
y_2_6_0 1.000000000
y_2_6_1 1.000000000
y_2_6_2 1.000000000
y_2_6_3 1.000000000
y_2_6_4 1.000000000
y_2_6_5 1.000000000
y_2_6_6 1.000000000
y_2_6_7 1.000000000
y_2_6_8 1.000000000
y_2_6_9 1.000000000
y_2_7_0 1.000000000
y_2_7_1 1.000000000
y_2_7_2 1.000000000
y_2_7_3 1.000000000
y_2_7_4 1.000000000
y_2_7_5 1.000000000
y_2_7_6 1.000000000
y_2_7_7 1.000000000
y_2_7_8 1.000000000
y_2_7_9 1.000000000
y_2_8_0 0.000000000
y_2_8_1 1.000000000
y_2_8_2 1.000000000
y_2_8_3 0.000000000
y_2_8_4 1.000000000
y_2_8_5 1.000000000
y_2_8_6 0.000000000
y_2_8_7 1.000000000
y_2_8_8 0.000000000
y_2_8_9 1.000000000
y_2_9_0 1.000000000
y_2_9_1 1.000000000
y_2_9_2 1.000000000
y_2_9_3 1.000000000
y_2_9_4 1.000000000
y_2_9_5 0.000000000
y_2_9_6 1.000000000
y_2_9_7 1.000000000
y_2_9_8 1.000000000
y_2_9_9 1.000000000
y_3_4_0 0.000000000
y_3_4_1 1.000000000
y_3_4_2 0.000000000
y_3_4_3 0.000000000
y_3_4_4 0.000000000
y_3_4_5 0.000000000
y_3_4_6 0.000000000
y_3_4_7 0.000000000
y_3_4_8 1.000000000
y_3_4_9 0.000000000
y_3_5_0 0.000000000
y_3_5_1 0.000000000
y_3_5_2 1.000000000
y_3_5_3 1.000000000
y_3_5_4 0.000000000
y_3_5_5 0.000000000
y_3_5_6 1.000000000
y_3_5_7 0.000000000
y_3_5_8 1.000000000
y_3_5_9 0.000000000
y_3_6_0 0.000000000
y_3_6_1 0.000000000
y_3_6_2 1.000000000
y_3_6_3 1.000000000
y_3_6_4 0.000000000
y_3_6_5 1.000000000
y_3_6_6 0.000000000
y_3_6_7 1.000000000
y_3_6_8 1.000000000
y_3_6_9 0.000000000
y_3_7_0 0.000000000
y_3_7_1 0.000000000
y_3_7_2 1.000000000
y_3_7_3 0.000000000
y_3_7_4 0.000000000
y_3_7_5 0.000000000
y_3_7_6 0.000000000
y_3_7_7 0.000000000
y_3_7_8 0.000000000
y_3_7_9 0.000000000
y_3_8_0 0.000000000
y_3_8_1 0.000000000
y_3_8_2 1.000000000
y_3_8_3 0.000000000
y_3_8_4 0.000000000
y_3_8_5 0.000000000
y_3_8_6 0.000000000
y_3_8_7 0.000000000
y_3_8_8 0.000000000
y_3_8_9 0.000000000
y_3_9_0 0.000000000
y_3_9_1 0.000000000
y_3_9_2 1.000000000
y_3_9_3 0.000000000
y_3_9_4 0.000000000
y_3_9_5 0.000000000
y_3_9_6 0.000000000
y_3_9_7 0.000000000
y_3_9_8 1.000000000
y_3_9_9 0.000000000
y_4_5_0 1.000000000
y_4_5_1 0.000000000
y_4_5_2 1.000000000
y_4_5_3 1.000000000
y_4_5_4 1.000000000
y_4_5_5 0.000000000
y_4_5_6 1.000000000
y_4_5_7 1.000000000
y_4_5_8 1.000000000
y_4_5_9 1.000000000
y_4_6_0 1.000000000
y_4_6_1 0.000000000
y_4_6_2 1.000000000
y_4_6_3 1.000000000
y_4_6_4 1.000000000
y_4_6_5 1.000000000
y_4_6_6 1.000000000
y_4_6_7 1.000000000
y_4_6_8 1.000000000
y_4_6_9 1.000000000
y_4_7_0 1.000000000
y_4_7_1 0.000000000
y_4_7_2 1.000000000
y_4_7_3 1.000000000
y_4_7_4 1.000000000
y_4_7_5 0.000000000
y_4_7_6 1.000000000
y_4_7_7 0.000000000
y_4_7_8 0.000000000
y_4_7_9 1.000000000
y_4_8_0 0.000000000
y_4_8_1 0.000000000
y_4_8_2 1.000000000
y_4_8_3 0.000000000
y_4_8_4 1.000000000
y_4_8_5 0.000000000
y_4_8_6 0.000000000
y_4_8_7 0.000000000
y_4_8_8 0.000000000
y_4_8_9 0.000000000
y_4_9_0 0.000000000
y_4_9_1 0.000000000
y_4_9_2 1.000000000
y_4_9_3 0.000000000
y_4_9_4 0.000000000
y_4_9_5 0.000000000
y_4_9_6 1.000000000
y_4_9_7 0.000000000
y_4_9_8 1.000000000
y_4_9_9 0.000000000
y_5_6_0 0.000000000
y_5_6_1 0.000000000
y_5_6_2 1.000000000
y_5_6_3 1.000000000
y_5_6_4 1.000000000
y_5_6_5 1.000000000
y_5_6_6 0.000000000
y_5_6_7 1.000000000
y_5_6_8 0.000000000
y_5_6_9 0.000000000
y_5_7_0 0.000000000
y_5_7_1 0.000000000
y_5_7_2 0.000000000
y_5_7_3 0.000000000
y_5_7_4 0.000000000
y_5_7_5 0.000000000
y_5_7_6 0.000000000
y_5_7_7 0.000000000
y_5_7_8 0.000000000
y_5_7_9 0.000000000
y_5_8_0 0.000000000
y_5_8_1 0.000000000
y_5_8_2 1.000000000
y_5_8_3 0.000000000
y_5_8_4 0.000000000
y_5_8_5 0.000000000
y_5_8_6 0.000000000
y_5_8_7 0.000000000
y_5_8_8 0.000000000
y_5_8_9 0.000000000
y_5_9_0 0.000000000
y_5_9_1 0.000000000
y_5_9_2 0.000000000
y_5_9_3 0.000000000
y_5_9_4 0.000000000
y_5_9_5 0.000000000
y_5_9_6 0.000000000
y_5_9_7 0.000000000
y_5_9_8 0.000000000
y_5_9_9 0.000000000
y_6_7_0 0.000000000
y_6_7_1 0.000000000
y_6_7_2 0.000000000
y_6_7_3 0.000000000
y_6_7_4 0.000000000
y_6_7_5 0.000000000
y_6_7_6 0.000000000
y_6_7_7 0.000000000
y_6_7_8 0.000000000
y_6_7_9 0.000000000
y_6_8_0 0.000000000
y_6_8_1 0.000000000
y_6_8_2 0.000000000
y_6_8_3 0.000000000
y_6_8_4 0.000000000
y_6_8_5 0.000000000
y_6_8_6 0.000000000
y_6_8_7 0.000000000
y_6_8_8 0.000000000
y_6_8_9 0.000000000
y_6_9_0 0.000000000
y_6_9_1 0.000000000
y_6_9_2 0.000000000
y_6_9_3 0.000000000
y_6_9_4 0.000000000
y_6_9_5 0.000000000
y_6_9_6 0.000000000
y_6_9_7 0.000000000
y_6_9_8 1.000000000
y_6_9_9 0.000000000
y_7_8_0 0.000000000
y_7_8_1 1.000000000
y_7_8_2 1.000000000
y_7_8_3 0.000000000
y_7_8_4 0.000000000
y_7_8_5 0.000000000
y_7_8_6 0.000000000
y_7_8_7 1.000000000
y_7_8_8 0.000000000
y_7_8_9 0.000000000
y_7_9_0 0.000000000
y_7_9_1 0.000000000
y_7_9_2 0.000000000
y_7_9_3 0.000000000
y_7_9_4 0.000000000
y_7_9_5 0.000000000
y_7_9_6 1.000000000
y_7_9_7 1.000000000
y_7_9_8 1.000000000
y_7_9_9 0.000000000
y_8_9_0 1.000000000
y_8_9_1 0.000000000
y_8_9_2 0.000000000
y_8_9_3 1.000000000
y_8_9_4 0.000000000
y_8_9_5 0.000000000
y_8_9_6 1.000000000
y_8_9_7 0.000000000
y_8_9_8 1.000000000
y_8_9_9 1.000000000
